\ This file has been generated by DOcplex
\ ENCODING=ISO-8859-1
\Problem name: random_problem.lp

Minimize
 obj: - 176 x0 - 88 x1 - 44 x2 - 472 x3 - 236 x4 - 118 x5 + 740 x6 + 370 x7
      + 185 x8 + 392 x9 + 196 x10 + 98 x11 + 556 x12 + 278 x13 + 139 x14
      + 516 x15 + 258 x16 + 129 x17 - 1704 x18 - 852 x19 - 426 x20 + [ 3776 x0^2
      + 3776 x0*x1 + 1888 x0*x2 + 640 x0*x3 + 320 x0*x4 + 160 x0*x5 + 3136 x0*x6
      + 1568 x0*x7 + 784 x0*x8 + 3008 x0*x9 + 1504 x0*x10 + 752 x0*x11
      + 3776 x0*x12 + 1888 x0*x13 + 944 x0*x14 + 6464 x0*x15 + 3232 x0*x16
      + 1616 x0*x17 + 2752 x0*x18 + 1376 x0*x19 + 688 x0*x20 + 944 x1^2
      + 944 x1*x2 + 320 x1*x3 + 160 x1*x4 + 80 x1*x5 + 1568 x1*x6 + 784 x1*x7
      + 392 x1*x8 + 1504 x1*x9 + 752 x1*x10 + 376 x1*x11 + 1888 x1*x12
      + 944 x1*x13 + 472 x1*x14 + 3232 x1*x15 + 1616 x1*x16 + 808 x1*x17
      + 1376 x1*x18 + 688 x1*x19 + 344 x1*x20 + 236 x2^2 + 160 x2*x3 + 80 x2*x4
      + 40 x2*x5 + 784 x2*x6 + 392 x2*x7 + 196 x2*x8 + 752 x2*x9 + 376 x2*x10
      + 188 x2*x11 + 944 x2*x12 + 472 x2*x13 + 236 x2*x14 + 1616 x2*x15
      + 808 x2*x16 + 404 x2*x17 + 688 x2*x18 + 344 x2*x19 + 172 x2*x20
      + 1856 x3^2 + 1856 x3*x4 + 928 x3*x5 + 896 x3*x6 + 448 x3*x7 + 224 x3*x8
      + 1856 x3*x9 + 928 x3*x10 + 464 x3*x11 + 640 x3*x12 + 320 x3*x13
      + 160 x3*x14 - 256 x3*x15 - 128 x3*x16 - 64 x3*x17 + 960 x3*x18
      + 480 x3*x19 + 240 x3*x20 + 464 x4^2 + 464 x4*x5 + 448 x4*x6 + 224 x4*x7
      + 112 x4*x8 + 928 x4*x9 + 464 x4*x10 + 232 x4*x11 + 320 x4*x12
      + 160 x4*x13 + 80 x4*x14 - 128 x4*x15 - 64 x4*x16 - 32 x4*x17 + 480 x4*x18
      + 240 x4*x19 + 120 x4*x20 + 116 x5^2 + 224 x5*x6 + 112 x5*x7 + 56 x5*x8
      + 464 x5*x9 + 232 x5*x10 + 116 x5*x11 + 160 x5*x12 + 80 x5*x13 + 40 x5*x14
      - 64 x5*x15 - 32 x5*x16 - 16 x5*x17 + 240 x5*x18 + 120 x5*x19 + 60 x5*x20
      + 3840 x6^2 + 3840 x6*x7 + 1920 x6*x8 + 3904 x6*x9 + 1952 x6*x10
      + 976 x6*x11 + 2048 x6*x12 + 1024 x6*x13 + 512 x6*x14 + 4480 x6*x15
      + 2240 x6*x16 + 1120 x6*x17 + 2752 x6*x18 + 1376 x6*x19 + 688 x6*x20
      + 960 x7^2 + 960 x7*x8 + 1952 x7*x9 + 976 x7*x10 + 488 x7*x11
      + 1024 x7*x12 + 512 x7*x13 + 256 x7*x14 + 2240 x7*x15 + 1120 x7*x16
      + 560 x7*x17 + 1376 x7*x18 + 688 x7*x19 + 344 x7*x20 + 240 x8^2
      + 976 x8*x9 + 488 x8*x10 + 244 x8*x11 + 512 x8*x12 + 256 x8*x13
      + 128 x8*x14 + 1120 x8*x15 + 560 x8*x16 + 280 x8*x17 + 688 x8*x18
      + 344 x8*x19 + 172 x8*x20 + 4864 x9^2 + 4864 x9*x10 + 2432 x9*x11
      + 64 x9*x12 + 32 x9*x13 + 16 x9*x14 + 1600 x9*x15 + 800 x9*x16
      + 400 x9*x17 + 6400 x9*x18 + 3200 x9*x19 + 1600 x9*x20 + 1216 x10^2
      + 1216 x10*x11 + 32 x10*x12 + 16 x10*x13 + 8 x10*x14 + 800 x10*x15
      + 400 x10*x16 + 200 x10*x17 + 3200 x10*x18 + 1600 x10*x19 + 800 x10*x20
      + 304 x11^2 + 16 x11*x12 + 8 x11*x13 + 4 x11*x14 + 400 x11*x15
      + 200 x11*x16 + 100 x11*x17 + 1600 x11*x18 + 800 x11*x19 + 400 x11*x20
      + 2400 x12^2 + 2400 x12*x13 + 1200 x12*x14 + 5888 x12*x15 + 2944 x12*x16
      + 1472 x12*x17 + 896 x12*x18 + 448 x12*x19 + 224 x12*x20 + 600 x13^2
      + 600 x13*x14 + 2944 x13*x15 + 1472 x13*x16 + 736 x13*x17 + 448 x13*x18
      + 224 x13*x19 + 112 x13*x20 + 150 x14^2 + 1472 x14*x15 + 736 x14*x16
      + 368 x14*x17 + 224 x14*x18 + 112 x14*x19 + 56 x14*x20 + 7776 x15^2
      + 7776 x15*x16 + 3888 x15*x17 + 6720 x15*x18 + 3360 x15*x19 + 1680 x15*x20
      + 1944 x16^2 + 1944 x16*x17 + 3360 x16*x18 + 1680 x16*x19 + 840 x16*x20
      + 486 x17^2 + 1680 x17*x18 + 840 x17*x19 + 420 x17*x20 + 5280 x18^2
      + 5280 x18*x19 + 2640 x18*x20 + 1320 x19^2 + 1320 x19*x20 + 330 x20^2 ]/2
Subject To
 c0: 4 x0 + 2 x1 + x2 + 4 x3 + 2 x4 + x5 + 4 x6 + 2 x7 + x8 + 4 x9 + 2 x10 + x11
     + 4 x12 + 2 x13 + x14 + 4 x15 + 2 x16 + x17 + 4 x18 + 2 x19 + x20 = 7

Bounds
 0 <= x0 <= 1
 0 <= x1 <= 1
 0 <= x2 <= 1
 0 <= x3 <= 1
 0 <= x4 <= 1
 0 <= x5 <= 1
 0 <= x6 <= 1
 0 <= x7 <= 1
 0 <= x8 <= 1
 0 <= x9 <= 1
 0 <= x10 <= 1
 0 <= x11 <= 1
 0 <= x12 <= 1
 0 <= x13 <= 1
 0 <= x14 <= 1
 0 <= x15 <= 1
 0 <= x16 <= 1
 0 <= x17 <= 1
 0 <= x18 <= 1
 0 <= x19 <= 1
 0 <= x20 <= 1

Binaries
 x0 x1 x2 x3 x4 x5 x6 x7 x8 x9 x10 x11 x12 x13 x14 x15 x16 x17 x18 x19 x20
End
